c Reduced graph for r28 generated by Cyril Grelier
p edge 288 3765
e 1 8
e 1 17
e 1 51
e 1 52
e 1 59
e 1 76
e 1 78
e 1 80
e 1 102
e 1 105
e 1 127
e 1 128
e 1 135
e 1 137
e 1 155
e 1 162
e 1 172
e 1 188
e 1 189
e 1 193
e 1 195
e 1 234
e 1 251
e 1 276
e 1 277
e 2 3
e 2 7
e 2 9
e 2 13
e 2 14
e 2 23
e 2 33
e 2 55
e 2 69
e 2 73
e 2 77
e 2 88
e 2 100
e 2 105
e 2 111
e 2 114
e 2 128
e 2 140
e 2 171
e 2 176
e 2 196
e 2 199
e 2 203
e 2 242
e 2 247
e 2 252
e 2 279
e 2 284
e 3 7
e 3 9
e 3 13
e 3 14
e 3 33
e 3 36
e 3 67
e 3 73
e 3 75
e 3 77
e 3 114
e 3 120
e 3 125
e 3 128
e 3 148
e 3 160
e 3 167
e 3 191
e 3 196
e 3 203
e 3 205
e 3 224
e 3 228
e 3 261
e 3 284
e 4 22
e 4 54
e 4 61
e 4 71
e 4 85
e 4 93
e 4 103
e 4 107
e 4 113
e 4 114
e 4 116
e 4 117
e 4 127
e 4 133
e 4 163
e 4 176
e 4 177
e 4 183
e 4 189
e 4 192
e 4 214
e 4 216
e 4 229
e 4 257
e 4 259
e 4 262
e 4 263
e 4 265
e 4 266
e 4 288
e 5 11
e 5 37
e 5 43
e 5 52
e 5 53
e 5 57
e 5 64
e 5 89
e 5 104
e 5 112
e 5 120
e 5 121
e 5 129
e 5 133
e 5 136
e 5 137
e 5 142
e 5 179
e 5 212
e 5 232
e 5 241
e 5 260
e 5 266
e 6 10
e 6 25
e 6 44
e 6 60
e 6 72
e 6 86
e 6 97
e 6 113
e 6 118
e 6 124
e 6 149
e 6 151
e 6 152
e 6 155
e 6 159
e 6 165
e 6 167
e 6 169
e 6 173
e 6 187
e 6 199
e 6 223
e 6 227
e 6 241
e 6 245
e 6 250
e 6 265
e 6 267
e 6 271
e 7 9
e 7 13
e 7 14
e 7 19
e 7 32
e 7 33
e 7 41
e 7 48
e 7 49
e 7 73
e 7 77
e 7 85
e 7 114
e 7 128
e 7 181
e 7 196
e 7 202
e 7 203
e 7 211
e 7 215
e 7 227
e 7 237
e 7 272
e 7 284
e 8 12
e 8 27
e 8 59
e 8 78
e 8 80
e 8 94
e 8 102
e 8 127
e 8 128
e 8 136
e 8 137
e 8 147
e 8 159
e 8 172
e 8 181
e 8 188
e 8 193
e 8 195
e 8 200
e 8 204
e 8 220
e 8 247
e 8 263
e 8 277
e 9 13
e 9 14
e 9 21
e 9 33
e 9 73
e 9 77
e 9 84
e 9 94
e 9 107
e 9 114
e 9 128
e 9 129
e 9 131
e 9 153
e 9 165
e 9 168
e 9 186
e 9 196
e 9 203
e 9 221
e 9 251
e 9 273
e 9 284
e 10 40
e 10 41
e 10 44
e 10 46
e 10 89
e 10 97
e 10 118
e 10 124
e 10 150
e 10 151
e 10 152
e 10 155
e 10 157
e 10 159
e 10 161
e 10 169
e 10 173
e 10 191
e 10 192
e 10 208
e 10 209
e 10 225
e 10 241
e 10 250
e 10 265
e 10 267
e 11 26
e 11 28
e 11 53
e 11 64
e 11 95
e 11 120
e 11 121
e 11 129
e 11 137
e 11 142
e 11 154
e 11 179
e 11 194
e 11 203
e 11 206
e 11 209
e 11 218
e 11 232
e 11 236
e 11 241
e 11 245
e 11 254
e 11 266
e 11 282
e 12 17
e 12 27
e 12 61
e 12 68
e 12 94
e 12 136
e 12 141
e 12 147
e 12 159
e 12 178
e 12 181
e 12 185
e 12 200
e 12 204
e 12 220
e 12 230
e 12 239
e 12 244
e 12 247
e 12 255
e 12 263
e 12 275
e 13 14
e 13 33
e 13 42
e 13 65
e 13 73
e 13 77
e 13 81
e 13 86
e 13 87
e 13 114
e 13 122
e 13 128
e 13 130
e 13 150
e 13 162
e 13 164
e 13 166
e 13 170
e 13 196
e 13 198
e 13 203
e 13 204
e 13 232
e 13 257
e 13 284
e 13 286
e 13 287
e 14 31
e 14 33
e 14 56
e 14 73
e 14 74
e 14 77
e 14 114
e 14 115
e 14 128
e 14 138
e 14 149
e 14 158
e 14 179
e 14 196
e 14 203
e 14 229
e 14 276
e 14 284
e 14 285
e 15 25
e 15 29
e 15 31
e 15 36
e 15 46
e 15 47
e 15 73
e 15 123
e 15 132
e 15 143
e 15 166
e 15 184
e 15 188
e 15 200
e 15 206
e 15 211
e 15 213
e 15 222
e 15 235
e 15 242
e 15 258
e 15 262
e 15 264
e 15 268
e 15 269
e 15 275
e 15 280
e 15 281
e 15 288
e 16 47
e 16 53
e 16 71
e 16 75
e 16 82
e 16 90
e 16 95
e 16 96
e 16 99
e 16 108
e 16 110
e 16 135
e 16 151
e 16 157
e 16 190
e 16 226
e 16 233
e 16 240
e 16 256
e 16 260
e 16 264
e 16 277
e 16 279
e 17 51
e 17 52
e 17 61
e 17 68
e 17 76
e 17 105
e 17 135
e 17 141
e 17 155
e 17 162
e 17 178
e 17 185
e 17 189
e 17 230
e 17 234
e 17 239
e 17 244
e 17 251
e 17 255
e 17 275
e 17 276
e 18 22
e 18 23
e 18 28
e 18 49
e 18 62
e 18 80
e 18 91
e 18 101
e 18 139
e 18 146
e 18 152
e 18 185
e 18 187
e 18 205
e 18 214
e 18 220
e 18 221
e 18 231
e 18 234
e 18 243
e 18 248
e 18 253
e 18 256
e 18 270
e 18 274
e 18 284
e 18 286
e 19 21
e 19 32
e 19 41
e 19 42
e 19 45
e 19 48
e 19 49
e 19 85
e 19 90
e 19 102
e 19 103
e 19 109
e 19 111
e 19 124
e 19 139
e 19 181
e 19 202
e 19 207
e 19 211
e 19 215
e 19 224
e 19 227
e 19 237
e 19 239
e 19 272
e 20 24
e 20 33
e 20 37
e 20 50
e 20 51
e 20 58
e 20 63
e 20 74
e 20 78
e 20 92
e 20 123
e 20 134
e 20 141
e 20 145
e 20 160
e 20 164
e 20 190
e 20 197
e 20 201
e 20 216
e 20 223
e 20 231
e 20 246
e 20 249
e 20 250
e 20 269
e 21 42
e 21 45
e 21 84
e 21 90
e 21 94
e 21 102
e 21 103
e 21 107
e 21 109
e 21 111
e 21 124
e 21 129
e 21 131
e 21 139
e 21 153
e 21 165
e 21 168
e 21 186
e 21 207
e 21 221
e 21 224
e 21 239
e 21 251
e 21 273
e 22 61
e 22 71
e 22 85
e 22 91
e 22 107
e 22 116
e 22 127
e 22 133
e 22 139
e 22 176
e 22 187
e 22 216
e 22 220
e 22 229
e 22 234
e 22 243
e 22 248
e 22 253
e 22 256
e 22 257
e 22 259
e 22 262
e 22 265
e 22 284
e 23 28
e 23 49
e 23 55
e 23 62
e 23 69
e 23 80
e 23 88
e 23 100
e 23 101
e 23 105
e 23 111
e 23 140
e 23 146
e 23 152
e 23 171
e 23 176
e 23 185
e 23 199
e 23 205
e 23 214
e 23 221
e 23 231
e 23 242
e 23 247
e 23 252
e 23 270
e 23 274
e 23 279
e 23 286
e 24 29
e 24 33
e 24 43
e 24 51
e 24 58
e 24 63
e 24 81
e 24 92
e 24 134
e 24 145
e 24 156
e 24 158
e 24 163
e 24 182
e 24 190
e 24 193
e 24 201
e 24 216
e 24 223
e 24 231
e 24 233
e 24 237
e 24 246
e 24 252
e 24 253
e 24 261
e 24 269
e 25 29
e 25 46
e 25 60
e 25 72
e 25 73
e 25 86
e 25 113
e 25 123
e 25 132
e 25 143
e 25 149
e 25 165
e 25 167
e 25 184
e 25 187
e 25 199
e 25 200
e 25 223
e 25 227
e 25 235
e 25 245
e 25 258
e 25 262
e 25 264
e 25 268
e 25 271
e 25 280
e 25 281
e 26 28
e 26 35
e 26 88
e 26 95
e 26 144
e 26 148
e 26 154
e 26 169
e 26 175
e 26 194
e 26 203
e 26 206
e 26 209
e 26 218
e 26 236
e 26 245
e 26 254
e 26 281
e 26 282
e 27 30
e 27 35
e 27 50
e 27 62
e 27 83
e 27 94
e 27 106
e 27 109
e 27 110
e 27 119
e 27 136
e 27 147
e 27 156
e 27 159
e 27 181
e 27 200
e 27 204
e 27 213
e 27 220
e 27 247
e 27 263
e 28 49
e 28 62
e 28 80
e 28 95
e 28 101
e 28 146
e 28 152
e 28 154
e 28 185
e 28 194
e 28 203
e 28 205
e 28 206
e 28 209
e 28 214
e 28 218
e 28 221
e 28 231
e 28 236
e 28 245
e 28 254
e 28 270
e 28 274
e 28 282
e 28 286
e 29 43
e 29 46
e 29 73
e 29 81
e 29 123
e 29 132
e 29 143
e 29 156
e 29 158
e 29 163
e 29 182
e 29 184
e 29 193
e 29 200
e 29 233
e 29 235
e 29 237
e 29 252
e 29 253
e 29 258
e 29 261
e 29 262
e 29 264
e 29 268
e 29 280
e 29 281
e 30 35
e 30 44
e 30 50
e 30 54
e 30 62
e 30 63
e 30 67
e 30 68
e 30 83
e 30 96
e 30 100
e 30 106
e 30 109
e 30 110
e 30 112
e 30 119
e 30 138
e 30 156
e 30 168
e 30 174
e 30 184
e 30 194
e 30 198
e 30 213
e 30 272
e 31 36
e 31 47
e 31 56
e 31 74
e 31 115
e 31 138
e 31 149
e 31 158
e 31 166
e 31 179
e 31 188
e 31 206
e 31 211
e 31 213
e 31 222
e 31 229
e 31 242
e 31 269
e 31 275
e 31 276
e 31 285
e 31 288
e 32 41
e 32 48
e 32 49
e 32 70
e 32 84
e 32 85
e 32 115
e 32 143
e 32 178
e 32 181
e 32 183
e 32 201
e 32 202
e 32 210
e 32 211
e 32 215
e 32 227
e 32 237
e 32 254
e 32 272
e 32 287
e 33 51
e 33 58
e 33 63
e 33 73
e 33 77
e 33 92
e 33 114
e 33 128
e 33 134
e 33 145
e 33 190
e 33 196
e 33 201
e 33 203
e 33 216
e 33 223
e 33 231
e 33 246
e 33 269
e 33 284
e 34 40
e 34 59
e 34 64
e 34 66
e 34 72
e 34 83
e 34 87
e 34 98
e 34 126
e 34 132
e 34 134
e 34 144
e 34 173
e 34 186
e 34 207
e 34 218
e 34 219
e 34 230
e 34 248
e 34 249
e 34 259
e 34 274
e 34 285
e 35 50
e 35 62
e 35 83
e 35 88
e 35 106
e 35 109
e 35 110
e 35 119
e 35 144
e 35 148
e 35 156
e 35 169
e 35 175
e 35 213
e 35 281
e 36 47
e 36 67
e 36 75
e 36 120
e 36 125
e 36 148
e 36 160
e 36 166
e 36 167
e 36 188
e 36 191
e 36 205
e 36 206
e 36 211
e 36 213
e 36 222
e 36 224
e 36 228
e 36 242
e 36 261
e 36 269
e 36 275
e 36 288
e 37 43
e 37 50
e 37 52
e 37 57
e 37 74
e 37 78
e 37 89
e 37 104
e 37 112
e 37 123
e 37 133
e 37 136
e 37 141
e 37 160
e 37 164
e 37 197
e 37 212
e 37 249
e 37 250
e 37 260
e 38 39
e 38 48
e 38 56
e 38 57
e 38 60
e 38 65
e 38 92
e 38 99
e 38 117
e 38 119
e 38 121
e 38 126
e 38 146
e 38 147
e 38 171
e 38 174
e 38 208
e 38 210
e 38 228
e 38 236
e 38 238
e 38 240
e 38 255
e 38 258
e 38 267
e 39 45
e 39 48
e 39 56
e 39 57
e 39 65
e 39 76
e 39 77
e 39 92
e 39 117
e 39 119
e 39 126
e 39 142
e 39 161
e 39 171
e 39 197
e 39 217
e 39 219
e 39 228
e 39 236
e 39 240
e 39 255
e 39 258
e 39 267
e 39 270
e 39 278
e 39 283
e 40 41
e 40 46
e 40 64
e 40 66
e 40 72
e 40 89
e 40 126
e 40 144
e 40 150
e 40 157
e 40 161
e 40 191
e 40 192
e 40 207
e 40 208
e 40 209
e 40 225
e 40 249
e 40 259
e 40 274
e 41 46
e 41 48
e 41 49
e 41 85
e 41 89
e 41 150
e 41 157
e 41 161
e 41 181
e 41 191
e 41 192
e 41 202
e 41 208
e 41 209
e 41 211
e 41 215
e 41 225
e 41 227
e 41 237
e 41 272
e 42 45
e 42 65
e 42 81
e 42 86
e 42 87
e 42 90
e 42 102
e 42 103
e 42 109
e 42 111
e 42 122
e 42 124
e 42 130
e 42 139
e 42 150
e 42 162
e 42 164
e 42 166
e 42 170
e 42 198
e 42 204
e 42 207
e 42 224
e 42 232
e 42 239
e 42 257
e 42 286
e 42 287
e 43 52
e 43 57
e 43 81
e 43 89
e 43 104
e 43 112
e 43 133
e 43 136
e 43 156
e 43 158
e 43 163
e 43 182
e 43 193
e 43 212
e 43 233
e 43 237
e 43 252
e 43 253
e 43 260
e 43 261
e 44 54
e 44 63
e 44 67
e 44 68
e 44 96
e 44 97
e 44 100
e 44 112
e 44 118
e 44 124
e 44 138
e 44 151
e 44 152
e 44 155
e 44 159
e 44 168
e 44 169
e 44 173
e 44 174
e 44 184
e 44 194
e 44 198
e 44 241
e 44 250
e 44 265
e 44 267
e 44 272
e 45 76
e 45 77
e 45 90
e 45 102
e 45 103
e 45 109
e 45 111
e 45 124
e 45 139
e 45 142
e 45 161
e 45 197
e 45 207
e 45 217
e 45 219
e 45 224
e 45 239
e 45 270
e 45 278
e 45 283
e 46 73
e 46 89
e 46 123
e 46 132
e 46 143
e 46 150
e 46 157
e 46 161
e 46 184
e 46 191
e 46 192
e 46 200
e 46 208
e 46 209
e 46 225
e 46 235
e 46 258
e 46 262
e 46 264
e 46 268
e 46 280
e 46 281
e 47 53
e 47 71
e 47 82
e 47 90
e 47 96
e 47 135
e 47 157
e 47 166
e 47 188
e 47 206
e 47 211
e 47 213
e 47 222
e 47 226
e 47 233
e 47 240
e 47 242
e 47 269
e 47 275
e 47 288
e 48 49
e 48 56
e 48 57
e 48 65
e 48 85
e 48 92
e 48 117
e 48 119
e 48 126
e 48 171
e 48 181
e 48 202
e 48 211
e 48 215
e 48 227
e 48 228
e 48 236
e 48 237
e 48 240
e 48 255
e 48 258
e 48 267
e 48 272
e 49 62
e 49 80
e 49 85
e 49 101
e 49 146
e 49 152
e 49 181
e 49 185
e 49 202
e 49 205
e 49 211
e 49 214
e 49 215
e 49 221
e 49 227
e 49 231
e 49 237
e 49 270
e 49 272
e 49 274
e 49 286
e 50 62
e 50 74
e 50 78
e 50 83
e 50 106
e 50 109
e 50 110
e 50 119
e 50 123
e 50 141
e 50 156
e 50 160
e 50 164
e 50 197
e 50 213
e 50 249
e 50 250
e 51 52
e 51 58
e 51 63
e 51 76
e 51 92
e 51 105
e 51 134
e 51 135
e 51 145
e 51 155
e 51 162
e 51 189
e 51 190
e 51 201
e 51 216
e 51 223
e 51 231
e 51 234
e 51 246
e 51 251
e 51 269
e 51 276
e 52 57
e 52 76
e 52 89
e 52 104
e 52 105
e 52 112
e 52 133
e 52 135
e 52 136
e 52 155
e 52 162
e 52 189
e 52 212
e 52 234
e 52 251
e 52 260
e 52 276
e 53 64
e 53 71
e 53 82
e 53 90
e 53 96
e 53 120
e 53 121
e 53 129
e 53 135
e 53 137
e 53 142
e 53 157
e 53 179
e 53 226
e 53 232
e 53 233
e 53 240
e 53 241
e 53 266
e 54 63
e 54 67
e 54 68
e 54 93
e 54 96
e 54 100
e 54 103
e 54 112
e 54 113
e 54 114
e 54 117
e 54 138
e 54 163
e 54 168
e 54 174
e 54 177
e 54 183
e 54 184
e 54 189
e 54 192
e 54 194
e 54 198
e 54 214
e 54 263
e 54 266
e 54 272
e 54 288
e 55 69
e 55 88
e 55 100
e 55 105
e 55 111
e 55 122
e 55 140
e 55 171
e 55 172
e 55 176
e 55 177
e 55 199
e 55 242
e 55 243
e 55 246
e 55 247
e 55 252
e 55 273
e 55 278
e 55 279
e 55 280
e 55 282
e 56 57
e 56 65
e 56 74
e 56 92
e 56 115
e 56 117
e 56 119
e 56 126
e 56 138
e 56 149
e 56 158
e 56 171
e 56 179
e 56 228
e 56 229
e 56 236
e 56 240
e 56 255
e 56 258
e 56 267
e 56 276
e 56 285
e 57 65
e 57 89
e 57 92
e 57 104
e 57 112
e 57 117
e 57 119
e 57 126
e 57 133
e 57 136
e 57 171
e 57 212
e 57 228
e 57 236
e 57 240
e 57 255
e 57 258
e 57 260
e 57 267
e 58 63
e 58 66
e 58 69
e 58 79
e 58 92
e 58 93
e 58 97
e 58 104
e 58 125
e 58 134
e 58 145
e 58 153
e 58 154
e 58 170
e 58 190
e 58 201
e 58 202
e 58 216
e 58 217
e 58 223
e 58 226
e 58 231
e 58 238
e 58 244
e 58 246
e 58 268
e 58 269
e 59 78
e 59 80
e 59 83
e 59 87
e 59 98
e 59 102
e 59 127
e 59 128
e 59 132
e 59 134
e 59 137
e 59 172
e 59 173
e 59 186
e 59 188
e 59 193
e 59 195
e 59 218
e 59 219
e 59 230
e 59 248
e 59 277
e 59 285
e 60 72
e 60 86
e 60 99
e 60 113
e 60 121
e 60 146
e 60 147
e 60 149
e 60 165
e 60 167
e 60 174
e 60 187
e 60 199
e 60 208
e 60 210
e 60 223
e 60 227
e 60 238
e 60 245
e 60 271
e 61 68
e 61 71
e 61 85
e 61 107
e 61 116
e 61 127
e 61 133
e 61 141
e 61 176
e 61 178
e 61 185
e 61 216
e 61 229
e 61 230
e 61 239
e 61 244
e 61 255
e 61 257
e 61 259
e 61 262
e 61 265
e 61 275
e 62 80
e 62 83
e 62 101
e 62 106
e 62 109
e 62 110
e 62 119
e 62 146
e 62 152
e 62 156
e 62 185
e 62 205
e 62 213
e 62 214
e 62 221
e 62 231
e 62 270
e 62 274
e 62 286
e 63 67
e 63 68
e 63 92
e 63 96
e 63 100
e 63 112
e 63 134
e 63 138
e 63 145
e 63 168
e 63 174
e 63 184
e 63 190
e 63 194
e 63 198
e 63 201
e 63 216
e 63 223
e 63 231
e 63 246
e 63 269
e 63 272
e 64 66
e 64 72
e 64 120
e 64 121
e 64 126
e 64 129
e 64 137
e 64 142
e 64 144
e 64 179
e 64 207
e 64 232
e 64 241
e 64 249
e 64 259
e 64 266
e 64 274
e 65 81
e 65 86
e 65 87
e 65 92
e 65 117
e 65 119
e 65 122
e 65 126
e 65 130
e 65 150
e 65 162
e 65 164
e 65 166
e 65 170
e 65 171
e 65 198
e 65 204
e 65 228
e 65 232
e 65 236
e 65 240
e 65 255
e 65 257
e 65 258
e 65 267
e 65 286
e 65 287
e 66 69
e 66 72
e 66 79
e 66 93
e 66 97
e 66 104
e 66 125
e 66 126
e 66 144
e 66 153
e 66 154
e 66 170
e 66 202
e 66 207
e 66 217
e 66 226
e 66 238
e 66 244
e 66 249
e 66 259
e 66 268
e 66 274
e 67 68
e 67 75
e 67 96
e 67 100
e 67 112
e 67 120
e 67 125
e 67 138
e 67 148
e 67 160
e 67 167
e 67 168
e 67 174
e 67 184
e 67 191
e 67 194
e 67 198
e 67 205
e 67 224
e 67 228
e 67 261
e 67 272
e 68 96
e 68 100
e 68 112
e 68 138
e 68 141
e 68 168
e 68 174
e 68 178
e 68 184
e 68 185
e 68 194
e 68 198
e 68 230
e 68 239
e 68 244
e 68 255
e 68 272
e 68 275
e 69 79
e 69 88
e 69 93
e 69 97
e 69 100
e 69 104
e 69 105
e 69 111
e 69 125
e 69 140
e 69 153
e 69 154
e 69 170
e 69 171
e 69 176
e 69 199
e 69 202
e 69 217
e 69 226
e 69 238
e 69 242
e 69 244
e 69 247
e 69 252
e 69 268
e 69 279
e 70 79
e 70 84
e 70 98
e 70 101
e 70 108
e 70 115
e 70 116
e 70 143
e 70 175
e 70 178
e 70 180
e 70 182
e 70 183
e 70 196
e 70 201
e 70 210
e 70 222
e 70 225
e 70 254
e 70 271
e 70 287
e 71 82
e 71 85
e 71 90
e 71 96
e 71 107
e 71 116
e 71 127
e 71 133
e 71 135
e 71 157
e 71 176
e 71 216
e 71 226
e 71 229
e 71 233
e 71 240
e 71 257
e 71 259
e 71 262
e 71 265
e 72 86
e 72 113
e 72 126
e 72 144
e 72 149
e 72 165
e 72 167
e 72 187
e 72 199
e 72 207
e 72 223
e 72 227
e 72 245
e 72 249
e 72 259
e 72 271
e 72 274
e 73 77
e 73 114
e 73 123
e 73 128
e 73 132
e 73 143
e 73 184
e 73 196
e 73 200
e 73 203
e 73 235
e 73 258
e 73 262
e 73 264
e 73 268
e 73 280
e 73 281
e 73 284
e 74 78
e 74 115
e 74 123
e 74 138
e 74 141
e 74 149
e 74 158
e 74 160
e 74 164
e 74 179
e 74 197
e 74 229
e 74 249
e 74 250
e 74 276
e 74 285
e 75 95
e 75 99
e 75 108
e 75 110
e 75 120
e 75 125
e 75 148
e 75 151
e 75 160
e 75 167
e 75 190
e 75 191
e 75 205
e 75 224
e 75 228
e 75 256
e 75 260
e 75 261
e 75 264
e 75 277
e 75 279
e 76 77
e 76 105
e 76 135
e 76 142
e 76 155
e 76 161
e 76 162
e 76 189
e 76 197
e 76 217
e 76 219
e 76 234
e 76 251
e 76 270
e 76 276
e 76 278
e 76 283
e 77 114
e 77 128
e 77 142
e 77 161
e 77 196
e 77 197
e 77 203
e 77 217
e 77 219
e 77 270
e 77 278
e 77 283
e 77 284
e 78 80
e 78 102
e 78 123
e 78 127
e 78 128
e 78 137
e 78 141
e 78 160
e 78 164
e 78 172
e 78 188
e 78 193
e 78 195
e 78 197
e 78 249
e 78 250
e 78 277
e 79 93
e 79 97
e 79 98
e 79 101
e 79 104
e 79 108
e 79 116
e 79 125
e 79 153
e 79 154
e 79 170
e 79 175
e 79 180
e 79 182
e 79 196
e 79 202
e 79 217
e 79 222
e 79 225
e 79 226
e 79 238
e 79 244
e 79 268
e 79 271
e 80 101
e 80 102
e 80 127
e 80 128
e 80 137
e 80 146
e 80 152
e 80 172
e 80 185
e 80 188
e 80 193
e 80 195
e 80 205
e 80 214
e 80 221
e 80 231
e 80 270
e 80 274
e 80 277
e 80 286
e 81 86
e 81 87
e 81 122
e 81 130
e 81 150
e 81 156
e 81 158
e 81 162
e 81 163
e 81 164
e 81 166
e 81 170
e 81 182
e 81 193
e 81 198
e 81 204
e 81 232
e 81 233
e 81 237
e 81 252
e 81 253
e 81 257
e 81 261
e 81 286
e 81 287
e 82 90
e 82 91
e 82 96
e 82 106
e 82 118
e 82 130
e 82 131
e 82 135
e 82 140
e 82 145
e 82 157
e 82 180
e 82 195
e 82 212
e 82 215
e 82 226
e 82 233
e 82 235
e 82 240
e 82 283
e 83 87
e 83 98
e 83 106
e 83 109
e 83 110
e 83 119
e 83 132
e 83 134
e 83 156
e 83 173
e 83 186
e 83 213
e 83 218
e 83 219
e 83 230
e 83 248
e 83 285
e 84 94
e 84 107
e 84 115
e 84 129
e 84 131
e 84 143
e 84 153
e 84 165
e 84 168
e 84 178
e 84 183
e 84 186
e 84 201
e 84 210
e 84 221
e 84 251
e 84 254
e 84 273
e 84 287
e 85 107
e 85 116
e 85 127
e 85 133
e 85 176
e 85 181
e 85 202
e 85 211
e 85 215
e 85 216
e 85 227
e 85 229
e 85 237
e 85 257
e 85 259
e 85 262
e 85 265
e 85 272
e 86 87
e 86 113
e 86 122
e 86 130
e 86 149
e 86 150
e 86 162
e 86 164
e 86 165
e 86 166
e 86 167
e 86 170
e 86 187
e 86 198
e 86 199
e 86 204
e 86 223
e 86 227
e 86 232
e 86 245
e 86 257
e 86 271
e 86 286
e 86 287
e 87 98
e 87 122
e 87 130
e 87 132
e 87 134
e 87 150
e 87 162
e 87 164
e 87 166
e 87 170
e 87 173
e 87 186
e 87 198
e 87 204
e 87 218
e 87 219
e 87 230
e 87 232
e 87 248
e 87 257
e 87 285
e 87 286
e 87 287
e 88 100
e 88 105
e 88 111
e 88 140
e 88 144
e 88 148
e 88 169
e 88 171
e 88 175
e 88 176
e 88 199
e 88 242
e 88 247
e 88 252
e 88 279
e 88 281
e 89 104
e 89 112
e 89 133
e 89 136
e 89 150
e 89 157
e 89 161
e 89 191
e 89 192
e 89 208
e 89 209
e 89 212
e 89 225
e 89 260
e 90 96
e 90 102
e 90 103
e 90 109
e 90 111
e 90 124
e 90 135
e 90 139
e 90 157
e 90 207
e 90 224
e 90 226
e 90 233
e 90 239
e 90 240
e 91 106
e 91 118
e 91 130
e 91 131
e 91 139
e 91 140
e 91 145
e 91 180
e 91 187
e 91 195
e 91 212
e 91 215
e 91 220
e 91 234
e 91 235
e 91 243
e 91 248
e 91 253
e 91 256
e 91 283
e 91 284
e 92 117
e 92 119
e 92 126
e 92 134
e 92 145
e 92 171
e 92 190
e 92 201
e 92 216
e 92 223
e 92 228
e 92 231
e 92 236
e 92 240
e 92 246
e 92 255
e 92 258
e 92 267
e 92 269
e 93 97
e 93 103
e 93 104
e 93 113
e 93 114
e 93 117
e 93 125
e 93 153
e 93 154
e 93 163
e 93 170
e 93 177
e 93 183
e 93 189
e 93 192
e 93 202
e 93 214
e 93 217
e 93 226
e 93 238
e 93 244
e 93 263
e 93 266
e 93 268
e 93 288
e 94 107
e 94 129
e 94 131
e 94 136
e 94 147
e 94 153
e 94 159
e 94 165
e 94 168
e 94 181
e 94 186
e 94 200
e 94 204
e 94 220
e 94 221
e 94 247
e 94 251
e 94 263
e 94 273
e 95 99
e 95 108
e 95 110
e 95 151
e 95 154
e 95 190
e 95 194
e 95 203
e 95 206
e 95 209
e 95 218
e 95 236
e 95 245
e 95 254
e 95 256
e 95 260
e 95 264
e 95 277
e 95 279
e 95 282
e 96 100
e 96 112
e 96 135
e 96 138
e 96 157
e 96 168
e 96 174
e 96 184
e 96 194
e 96 198
e 96 226
e 96 233
e 96 240
e 96 272
e 97 104
e 97 118
e 97 124
e 97 125
e 97 151
e 97 152
e 97 153
e 97 154
e 97 155
e 97 159
e 97 169
e 97 170
e 97 173
e 97 202
e 97 217
e 97 226
e 97 238
e 97 241
e 97 244
e 97 250
e 97 265
e 97 267
e 97 268
e 98 101
e 98 108
e 98 116
e 98 132
e 98 134
e 98 173
e 98 175
e 98 180
e 98 182
e 98 186
e 98 196
e 98 218
e 98 219
e 98 222
e 98 225
e 98 230
e 98 248
e 98 271
e 98 285
e 99 108
e 99 110
e 99 121
e 99 146
e 99 147
e 99 151
e 99 174
e 99 190
e 99 208
e 99 210
e 99 238
e 99 256
e 99 260
e 99 264
e 99 277
e 99 279
e 100 105
e 100 111
e 100 112
e 100 138
e 100 140
e 100 168
e 100 171
e 100 174
e 100 176
e 100 184
e 100 194
e 100 198
e 100 199
e 100 242
e 100 247
e 100 252
e 100 272
e 100 279
e 101 108
e 101 116
e 101 146
e 101 152
e 101 175
e 101 180
e 101 182
e 101 185
e 101 196
e 101 205
e 101 214
e 101 221
e 101 222
e 101 225
e 101 231
e 101 270
e 101 271
e 101 274
e 101 286
e 102 103
e 102 109
e 102 111
e 102 124
e 102 127
e 102 128
e 102 137
e 102 139
e 102 172
e 102 188
e 102 193
e 102 195
e 102 207
e 102 224
e 102 239
e 102 277
e 103 109
e 103 111
e 103 113
e 103 114
e 103 117
e 103 124
e 103 139
e 103 163
e 103 177
e 103 183
e 103 189
e 103 192
e 103 207
e 103 214
e 103 224
e 103 239
e 103 263
e 103 266
e 103 288
e 104 112
e 104 125
e 104 133
e 104 136
e 104 153
e 104 154
e 104 170
e 104 202
e 104 212
e 104 217
e 104 226
e 104 238
e 104 244
e 104 260
e 104 268
e 105 111
e 105 135
e 105 140
e 105 155
e 105 162
e 105 171
e 105 176
e 105 189
e 105 199
e 105 234
e 105 242
e 105 247
e 105 251
e 105 252
e 105 276
e 105 279
e 106 109
e 106 110
e 106 118
e 106 119
e 106 130
e 106 131
e 106 140
e 106 145
e 106 156
e 106 180
e 106 195
e 106 212
e 106 213
e 106 215
e 106 235
e 106 283
e 107 116
e 107 127
e 107 129
e 107 131
e 107 133
e 107 153
e 107 165
e 107 168
e 107 176
e 107 186
e 107 216
e 107 221
e 107 229
e 107 251
e 107 257
e 107 259
e 107 262
e 107 265
e 107 273
e 108 110
e 108 116
e 108 151
e 108 175
e 108 180
e 108 182
e 108 190
e 108 196
e 108 222
e 108 225
e 108 256
e 108 260
e 108 264
e 108 271
e 108 277
e 108 279
e 109 110
e 109 111
e 109 119
e 109 124
e 109 139
e 109 156
e 109 207
e 109 213
e 109 224
e 109 239
e 110 119
e 110 151
e 110 156
e 110 190
e 110 213
e 110 256
e 110 260
e 110 264
e 110 277
e 110 279
e 111 124
e 111 139
e 111 140
e 111 171
e 111 176
e 111 199
e 111 207
e 111 224
e 111 239
e 111 242
e 111 247
e 111 252
e 111 279
e 112 133
e 112 136
e 112 138
e 112 168
e 112 174
e 112 184
e 112 194
e 112 198
e 112 212
e 112 260
e 112 272
e 113 114
e 113 117
e 113 149
e 113 163
e 113 165
e 113 167
e 113 177
e 113 183
e 113 187
e 113 189
e 113 192
e 113 199
e 113 214
e 113 223
e 113 227
e 113 245
e 113 263
e 113 266
e 113 271
e 113 288
e 114 117
e 114 128
e 114 163
e 114 177
e 114 183
e 114 189
e 114 192
e 114 196
e 114 203
e 114 214
e 114 263
e 114 266
e 114 284
e 114 288
e 115 138
e 115 143
e 115 149
e 115 158
e 115 178
e 115 179
e 115 183
e 115 201
e 115 210
e 115 229
e 115 254
e 115 276
e 115 285
e 115 287
e 116 127
e 116 133
e 116 175
e 116 176
e 116 180
e 116 182
e 116 196
e 116 216
e 116 222
e 116 225
e 116 229
e 116 257
e 116 259
e 116 262
e 116 265
e 116 271
e 117 119
e 117 126
e 117 163
e 117 171
e 117 177
e 117 183
e 117 189
e 117 192
e 117 214
e 117 228
e 117 236
e 117 240
e 117 255
e 117 258
e 117 263
e 117 266
e 117 267
e 117 288
e 118 124
e 118 130
e 118 131
e 118 140
e 118 145
e 118 151
e 118 152
e 118 155
e 118 159
e 118 169
e 118 173
e 118 180
e 118 195
e 118 212
e 118 215
e 118 235
e 118 241
e 118 250
e 118 265
e 118 267
e 118 283
e 119 126
e 119 156
e 119 171
e 119 213
e 119 228
e 119 236
e 119 240
e 119 255
e 119 258
e 119 267
e 120 121
e 120 125
e 120 129
e 120 137
e 120 142
e 120 148
e 120 160
e 120 167
e 120 179
e 120 191
e 120 205
e 120 224
e 120 228
e 120 232
e 120 241
e 120 261
e 120 266
e 121 129
e 121 137
e 121 142
e 121 146
e 121 147
e 121 174
e 121 179
e 121 208
e 121 210
e 121 232
e 121 238
e 121 241
e 121 266
e 122 130
e 122 150
e 122 162
e 122 164
e 122 166
e 122 170
e 122 172
e 122 177
e 122 198
e 122 204
e 122 232
e 122 243
e 122 246
e 122 257
e 122 273
e 122 278
e 122 280
e 122 282
e 122 286
e 122 287
e 123 132
e 123 141
e 123 143
e 123 160
e 123 164
e 123 184
e 123 197
e 123 200
e 123 235
e 123 249
e 123 250
e 123 258
e 123 262
e 123 264
e 123 268
e 123 280
e 123 281
e 124 139
e 124 151
e 124 152
e 124 155
e 124 159
e 124 169
e 124 173
e 124 207
e 124 224
e 124 239
e 124 241
e 124 250
e 124 265
e 124 267
e 125 148
e 125 153
e 125 154
e 125 160
e 125 167
e 125 170
e 125 191
e 125 202
e 125 205
e 125 217
e 125 224
e 125 226
e 125 228
e 125 238
e 125 244
e 125 261
e 125 268
e 126 144
e 126 171
e 126 207
e 126 228
e 126 236
e 126 240
e 126 249
e 126 255
e 126 258
e 126 259
e 126 267
e 126 274
e 127 128
e 127 133
e 127 137
e 127 172
e 127 176
e 127 188
e 127 193
e 127 195
e 127 216
e 127 229
e 127 257
e 127 259
e 127 262
e 127 265
e 127 277
e 128 137
e 128 172
e 128 188
e 128 193
e 128 195
e 128 196
e 128 203
e 128 277
e 128 284
e 129 131
e 129 137
e 129 142
e 129 153
e 129 165
e 129 168
e 129 179
e 129 186
e 129 221
e 129 232
e 129 241
e 129 251
e 129 266
e 129 273
e 130 131
e 130 140
e 130 145
e 130 150
e 130 162
e 130 164
e 130 166
e 130 170
e 130 180
e 130 195
e 130 198
e 130 204
e 130 212
e 130 215
e 130 232
e 130 235
e 130 257
e 130 283
e 130 286
e 130 287
e 131 140
e 131 145
e 131 153
e 131 165
e 131 168
e 131 180
e 131 186
e 131 195
e 131 212
e 131 215
e 131 221
e 131 235
e 131 251
e 131 273
e 131 283
e 132 134
e 132 143
e 132 173
e 132 184
e 132 186
e 132 200
e 132 218
e 132 219
e 132 230
e 132 235
e 132 248
e 132 258
e 132 262
e 132 264
e 132 268
e 132 280
e 132 281
e 132 285
e 133 136
e 133 176
e 133 212
e 133 216
e 133 229
e 133 257
e 133 259
e 133 260
e 133 262
e 133 265
e 134 145
e 134 173
e 134 186
e 134 190
e 134 201
e 134 216
e 134 218
e 134 219
e 134 223
e 134 230
e 134 231
e 134 246
e 134 248
e 134 269
e 134 285
e 135 155
e 135 157
e 135 162
e 135 189
e 135 226
e 135 233
e 135 234
e 135 240
e 135 251
e 135 276
e 136 147
e 136 159
e 136 181
e 136 200
e 136 204
e 136 212
e 136 220
e 136 247
e 136 260
e 136 263
e 137 142
e 137 172
e 137 179
e 137 188
e 137 193
e 137 195
e 137 232
e 137 241
e 137 266
e 137 277
e 138 149
e 138 158
e 138 168
e 138 174
e 138 179
e 138 184
e 138 194
e 138 198
e 138 229
e 138 272
e 138 276
e 138 285
e 139 187
e 139 207
e 139 220
e 139 224
e 139 234
e 139 239
e 139 243
e 139 248
e 139 253
e 139 256
e 139 284
e 140 145
e 140 171
e 140 176
e 140 180
e 140 195
e 140 199
e 140 212
e 140 215
e 140 235
e 140 242
e 140 247
e 140 252
e 140 279
e 140 283
e 141 160
e 141 164
e 141 178
e 141 185
e 141 197
e 141 230
e 141 239
e 141 244
e 141 249
e 141 250
e 141 255
e 141 275
e 142 161
e 142 179
e 142 197
e 142 217
e 142 219
e 142 232
e 142 241
e 142 266
e 142 270
e 142 278
e 142 283
e 143 178
e 143 183
e 143 184
e 143 200
e 143 201
e 143 210
e 143 235
e 143 254
e 143 258
e 143 262
e 143 264
e 143 268
e 143 280
e 143 281
e 143 287
e 144 148
e 144 169
e 144 175
e 144 207
e 144 249
e 144 259
e 144 274
e 144 281
e 145 180
e 145 190
e 145 195
e 145 201
e 145 212
e 145 215
e 145 216
e 145 223
e 145 231
e 145 235
e 145 246
e 145 269
e 145 283
e 146 147
e 146 152
e 146 174
e 146 185
e 146 205
e 146 208
e 146 210
e 146 214
e 146 221
e 146 231
e 146 238
e 146 270
e 146 274
e 146 286
e 147 159
e 147 174
e 147 181
e 147 200
e 147 204
e 147 208
e 147 210
e 147 220
e 147 238
e 147 247
e 147 263
e 148 160
e 148 167
e 148 169
e 148 175
e 148 191
e 148 205
e 148 224
e 148 228
e 148 261
e 148 281
e 149 158
e 149 165
e 149 167
e 149 179
e 149 187
e 149 199
e 149 223
e 149 227
e 149 229
e 149 245
e 149 271
e 149 276
e 149 285
e 150 157
e 150 161
e 150 162
e 150 164
e 150 166
e 150 170
e 150 191
e 150 192
e 150 198
e 150 204
e 150 208
e 150 209
e 150 225
e 150 232
e 150 257
e 150 286
e 150 287
e 151 152
e 151 155
e 151 159
e 151 169
e 151 173
e 151 190
e 151 241
e 151 250
e 151 256
e 151 260
e 151 264
e 151 265
e 151 267
e 151 277
e 151 279
e 152 155
e 152 159
e 152 169
e 152 173
e 152 185
e 152 205
e 152 214
e 152 221
e 152 231
e 152 241
e 152 250
e 152 265
e 152 267
e 152 270
e 152 274
e 152 286
e 153 154
e 153 165
e 153 168
e 153 170
e 153 186
e 153 202
e 153 217
e 153 221
e 153 226
e 153 238
e 153 244
e 153 251
e 153 268
e 153 273
e 154 170
e 154 194
e 154 202
e 154 203
e 154 206
e 154 209
e 154 217
e 154 218
e 154 226
e 154 236
e 154 238
e 154 244
e 154 245
e 154 254
e 154 268
e 154 282
e 155 159
e 155 162
e 155 169
e 155 173
e 155 189
e 155 234
e 155 241
e 155 250
e 155 251
e 155 265
e 155 267
e 155 276
e 156 158
e 156 163
e 156 182
e 156 193
e 156 213
e 156 233
e 156 237
e 156 252
e 156 253
e 156 261
e 157 161
e 157 191
e 157 192
e 157 208
e 157 209
e 157 225
e 157 226
e 157 233
e 157 240
e 158 163
e 158 179
e 158 182
e 158 193
e 158 229
e 158 233
e 158 237
e 158 252
e 158 253
e 158 261
e 158 276
e 158 285
e 159 169
e 159 173
e 159 181
e 159 200
e 159 204
e 159 220
e 159 241
e 159 247
e 159 250
e 159 263
e 159 265
e 159 267
e 160 164
e 160 167
e 160 191
e 160 197
e 160 205
e 160 224
e 160 228
e 160 249
e 160 250
e 160 261
e 161 191
e 161 192
e 161 197
e 161 208
e 161 209
e 161 217
e 161 219
e 161 225
e 161 270
e 161 278
e 161 283
e 162 164
e 162 166
e 162 170
e 162 189
e 162 198
e 162 204
e 162 232
e 162 234
e 162 251
e 162 257
e 162 276
e 162 286
e 162 287
e 163 177
e 163 182
e 163 183
e 163 189
e 163 192
e 163 193
e 163 214
e 163 233
e 163 237
e 163 252
e 163 253
e 163 261
e 163 263
e 163 266
e 163 288
e 164 166
e 164 170
e 164 197
e 164 198
e 164 204
e 164 232
e 164 249
e 164 250
e 164 257
e 164 286
e 164 287
e 165 167
e 165 168
e 165 186
e 165 187
e 165 199
e 165 221
e 165 223
e 165 227
e 165 245
e 165 251
e 165 271
e 165 273
e 166 170
e 166 188
e 166 198
e 166 204
e 166 206
e 166 211
e 166 213
e 166 222
e 166 232
e 166 242
e 166 257
e 166 269
e 166 275
e 166 286
e 166 287
e 166 288
e 167 187
e 167 191
e 167 199
e 167 205
e 167 223
e 167 224
e 167 227
e 167 228
e 167 245
e 167 261
e 167 271
e 168 174
e 168 184
e 168 186
e 168 194
e 168 198
e 168 221
e 168 251
e 168 272
e 168 273
e 169 173
e 169 175
e 169 241
e 169 250
e 169 265
e 169 267
e 169 281
e 170 198
e 170 202
e 170 204
e 170 217
e 170 226
e 170 232
e 170 238
e 170 244
e 170 257
e 170 268
e 170 286
e 170 287
e 171 176
e 171 199
e 171 228
e 171 236
e 171 240
e 171 242
e 171 247
e 171 252
e 171 255
e 171 258
e 171 267
e 171 279
e 172 177
e 172 188
e 172 193
e 172 195
e 172 243
e 172 246
e 172 273
e 172 277
e 172 278
e 172 280
e 172 282
e 173 186
e 173 218
e 173 219
e 173 230
e 173 241
e 173 248
e 173 250
e 173 265
e 173 267
e 173 285
e 174 184
e 174 194
e 174 198
e 174 208
e 174 210
e 174 238
e 174 272
e 175 180
e 175 182
e 175 196
e 175 222
e 175 225
e 175 271
e 175 281
e 176 199
e 176 216
e 176 229
e 176 242
e 176 247
e 176 252
e 176 257
e 176 259
e 176 262
e 176 265
e 176 279
e 177 183
e 177 189
e 177 192
e 177 214
e 177 243
e 177 246
e 177 263
e 177 266
e 177 273
e 177 278
e 177 280
e 177 282
e 177 288
e 178 183
e 178 185
e 178 201
e 178 210
e 178 230
e 178 239
e 178 244
e 178 254
e 178 255
e 178 275
e 178 287
e 179 229
e 179 232
e 179 241
e 179 266
e 179 276
e 179 285
e 180 182
e 180 195
e 180 196
e 180 212
e 180 215
e 180 222
e 180 225
e 180 235
e 180 271
e 180 283
e 181 200
e 181 202
e 181 204
e 181 211
e 181 215
e 181 220
e 181 227
e 181 237
e 181 247
e 181 263
e 181 272
e 182 193
e 182 196
e 182 222
e 182 225
e 182 233
e 182 237
e 182 252
e 182 253
e 182 261
e 182 271
e 183 189
e 183 192
e 183 201
e 183 210
e 183 214
e 183 254
e 183 263
e 183 266
e 183 287
e 183 288
e 184 194
e 184 198
e 184 200
e 184 235
e 184 258
e 184 262
e 184 264
e 184 268
e 184 272
e 184 280
e 184 281
e 185 205
e 185 214
e 185 221
e 185 230
e 185 231
e 185 239
e 185 244
e 185 255
e 185 270
e 185 274
e 185 275
e 185 286
e 186 218
e 186 219
e 186 221
e 186 230
e 186 248
e 186 251
e 186 273
e 186 285
e 187 199
e 187 220
e 187 223
e 187 227
e 187 234
e 187 243
e 187 245
e 187 248
e 187 253
e 187 256
e 187 271
e 187 284
e 188 193
e 188 195
e 188 206
e 188 211
e 188 213
e 188 222
e 188 242
e 188 269
e 188 275
e 188 277
e 188 288
e 189 192
e 189 214
e 189 234
e 189 251
e 189 263
e 189 266
e 189 276
e 189 288
e 190 201
e 190 216
e 190 223
e 190 231
e 190 246
e 190 256
e 190 260
e 190 264
e 190 269
e 190 277
e 190 279
e 191 192
e 191 205
e 191 208
e 191 209
e 191 224
e 191 225
e 191 228
e 191 261
e 192 208
e 192 209
e 192 214
e 192 225
e 192 263
e 192 266
e 192 288
e 193 195
e 193 233
e 193 237
e 193 252
e 193 253
e 193 261
e 193 277
e 194 198
e 194 203
e 194 206
e 194 209
e 194 218
e 194 236
e 194 245
e 194 254
e 194 272
e 194 282
e 195 212
e 195 215
e 195 235
e 195 277
e 195 283
e 196 203
e 196 222
e 196 225
e 196 271
e 196 284
e 197 217
e 197 219
e 197 249
e 197 250
e 197 270
e 197 278
e 197 283
e 198 204
e 198 232
e 198 257
e 198 272
e 198 286
e 198 287
e 199 223
e 199 227
e 199 242
e 199 245
e 199 247
e 199 252
e 199 271
e 199 279
e 200 204
e 200 220
e 200 235
e 200 247
e 200 258
e 200 262
e 200 263
e 200 264
e 200 268
e 200 280
e 200 281
e 201 210
e 201 216
e 201 223
e 201 231
e 201 246
e 201 254
e 201 269
e 201 287
e 202 211
e 202 215
e 202 217
e 202 226
e 202 227
e 202 237
e 202 238
e 202 244
e 202 268
e 202 272
e 203 206
e 203 209
e 203 218
e 203 236
e 203 245
e 203 254
e 203 282
e 203 284
e 204 220
e 204 232
e 204 247
e 204 257
e 204 263
e 204 286
e 204 287
e 205 214
e 205 221
e 205 224
e 205 228
e 205 231
e 205 261
e 205 270
e 205 274
e 205 286
e 206 209
e 206 211
e 206 213
e 206 218
e 206 222
e 206 236
e 206 242
e 206 245
e 206 254
e 206 269
e 206 275
e 206 282
e 206 288
e 207 224
e 207 239
e 207 249
e 207 259
e 207 274
e 208 209
e 208 210
e 208 225
e 208 238
e 209 218
e 209 225
e 209 236
e 209 245
e 209 254
e 209 282
e 210 238
e 210 254
e 210 287
e 211 213
e 211 215
e 211 222
e 211 227
e 211 237
e 211 242
e 211 269
e 211 272
e 211 275
e 211 288
e 212 215
e 212 235
e 212 260
e 212 283
e 213 222
e 213 242
e 213 269
e 213 275
e 213 288
e 214 221
e 214 231
e 214 263
e 214 266
e 214 270
e 214 274
e 214 286
e 214 288
e 215 227
e 215 235
e 215 237
e 215 272
e 215 283
e 216 223
e 216 229
e 216 231
e 216 246
e 216 257
e 216 259
e 216 262
e 216 265
e 216 269
e 217 219
e 217 226
e 217 238
e 217 244
e 217 268
e 217 270
e 217 278
e 217 283
e 218 219
e 218 230
e 218 236
e 218 245
e 218 248
e 218 254
e 218 282
e 218 285
e 219 230
e 219 248
e 219 270
e 219 278
e 219 283
e 219 285
e 220 234
e 220 243
e 220 247
e 220 248
e 220 253
e 220 256
e 220 263
e 220 284
e 221 231
e 221 251
e 221 270
e 221 273
e 221 274
e 221 286
e 222 225
e 222 242
e 222 269
e 222 271
e 222 275
e 222 288
e 223 227
e 223 231
e 223 245
e 223 246
e 223 269
e 223 271
e 224 228
e 224 239
e 224 261
e 225 271
e 226 233
e 226 238
e 226 240
e 226 244
e 226 268
e 227 237
e 227 245
e 227 271
e 227 272
e 228 236
e 228 240
e 228 255
e 228 258
e 228 261
e 228 267
e 229 257
e 229 259
e 229 262
e 229 265
e 229 276
e 229 285
e 230 239
e 230 244
e 230 248
e 230 255
e 230 275
e 230 285
e 231 246
e 231 269
e 231 270
e 231 274
e 231 286
e 232 241
e 232 257
e 232 266
e 232 286
e 232 287
e 233 237
e 233 240
e 233 252
e 233 253
e 233 261
e 234 243
e 234 248
e 234 251
e 234 253
e 234 256
e 234 276
e 234 284
e 235 258
e 235 262
e 235 264
e 235 268
e 235 280
e 235 281
e 235 283
e 236 240
e 236 245
e 236 254
e 236 255
e 236 258
e 236 267
e 236 282
e 237 252
e 237 253
e 237 261
e 237 272
e 238 244
e 238 268
e 239 244
e 239 255
e 239 275
e 240 255
e 240 258
e 240 267
e 241 250
e 241 265
e 241 266
e 241 267
e 242 247
e 242 252
e 242 269
e 242 275
e 242 279
e 242 288
e 243 246
e 243 248
e 243 253
e 243 256
e 243 273
e 243 278
e 243 280
e 243 282
e 243 284
e 244 255
e 244 268
e 244 275
e 245 254
e 245 271
e 245 282
e 246 269
e 246 273
e 246 278
e 246 280
e 246 282
e 247 252
e 247 263
e 247 279
e 248 253
e 248 256
e 248 284
e 248 285
e 249 250
e 249 259
e 249 274
e 250 265
e 250 267
e 251 273
e 251 276
e 252 253
e 252 261
e 252 279
e 253 256
e 253 261
e 253 284
e 254 282
e 254 287
e 255 258
e 255 267
e 255 275
e 256 260
e 256 264
e 256 277
e 256 279
e 256 284
e 257 259
e 257 262
e 257 265
e 257 286
e 257 287
e 258 262
e 258 264
e 258 267
e 258 268
e 258 280
e 258 281
e 259 262
e 259 265
e 259 274
e 260 264
e 260 277
e 260 279
e 262 264
e 262 265
e 262 268
e 262 280
e 262 281
e 263 266
e 263 288
e 264 268
e 264 277
e 264 279
e 264 280
e 264 281
e 265 267
e 266 288
e 268 280
e 268 281
e 269 275
e 269 288
e 270 274
e 270 278
e 270 283
e 270 286
e 273 278
e 273 280
e 273 282
e 274 286
e 275 288
e 276 285
e 277 279
e 278 280
e 278 282
e 278 283
e 280 281
e 280 282
e 286 287
